Homogeneous Fleet Composition Problem.lp
\ENCODING=ISO-8859-1
\Problem name: ilog.cplex

Minimize
 obj: - 15600 v#0 - 7800 x(1)#1 - 9750 x(2)#2 - 10400 x(3)#3 - 11050 x(4)#4
      - 11050 x(5)#5 - 11700 x(6)#6 - 13000 x(7)#7 - 13000 x(8)#8
      - 13650 x(9)#9 - 14300 x(10)#10 - 15600 x(11)#11 - 14300 x(12)#12
      - 13000 x(13)#13 - 11700 x(14)#14 - 11050 x(15)#15 - 10400 x(16)#16
      - 9100 x(17)#17 - 8450 x(18)#18 - 8450 x(19)#19 - 9100 x(20)#20
      - 9750 x(21)#21 - 10400 x(22)#22 - 11050 x(23)#23 - 12350 x(24)#24
      - 13650 x(25)#25 - 14300 x(26)#26 - 14950 x(27)#27 - 14300 x(28)#28
      - 15600 x(29)#29 - 16900 x(30)#30 - 17550 x(31)#31 - 18200 x(32)#32
      - 19500 x(33)#33 - 20800 x(34)#34 - 20800 x(35)#35 - 19500 x(36)#36
      - 18850 x(37)#37 - 18200 x(38)#38 - 16900 x(39)#39 - 16250 x(40)#40
      - 16250 x(41)#41 - 15600 x(42)#42 - 14300 x(43)#43 - 14300 x(44)#44
      - 12350 x(45)#45 - 13000 x(46)#46 - 11700 x(47)#47 - 11050 x(48)#48
      - 10400 x(49)#49 - 10400 x(50)#50 - 9100 x(51)#51 - 8450 x(52)#52
      + 650 y(1)#53 + 650 y(2)#54 + 650 y(3)#55 + 650 y(4)#56 + 650 y(5)#57
      + 650 y(6)#58 + 650 y(7)#59 + 650 y(8)#60 + 650 y(9)#61 + 650 y(10)#62
      + 650 y(11)#63 + 650 y(12)#64 + 650 y(13)#65 + 650 y(14)#66
      + 650 y(15)#67 + 650 y(16)#68 + 650 y(17)#69 + 650 y(18)#70
      + 650 y(19)#71 + 650 y(20)#72 + 650 y(21)#73 + 650 y(22)#74
      + 650 y(23)#75 + 650 y(24)#76 + 650 y(25)#77 + 650 y(26)#78
      + 650 y(27)#79 + 650 y(28)#80 + 650 y(29)#81 + 650 y(30)#82
      + 650 y(31)#83 + 650 y(32)#84 + 650 y(33)#85 + 650 y(34)#86
      + 650 y(35)#87 + 650 y(36)#88 + 650 y(37)#89 + 650 y(38)#90
      + 650 y(39)#91 + 650 y(40)#92 + 650 y(41)#93 + 650 y(42)#94
      + 650 y(43)#95 + 650 y(44)#96 + 650 y(45)#97 + 650 y(46)#98
      + 650 y(47)#99 + 650 y(48)#100 + 650 y(49)#101 + 650 y(50)#102
      + 650 y(51)#103 + 650 y(52)#104 + 853600 dummy#105
Subject To
 c1:   v#0 - 32 x(1)#1 >= -20
 c3:   v#0 - 32 x(2)#2 >= -17
 c5:   v#0 - 32 x(3)#3 >= -16
 c7:   v#0 - 32 x(4)#4 >= -15
 c9:   v#0 - 32 x(5)#5 >= -15
 c11:  v#0 - 32 x(6)#6 >= -14
 c13:  v#0 - 32 x(7)#7 >= -12
 c14:  v#0 - 32 x(8)#8 >= -12
 c15:  v#0 - 32 x(9)#9 >= -11
 c16:  v#0 - 32 x(10)#10 >= -10
 c17:  v#0 - 32 x(11)#11 >= -8
 c18:  v#0 - 32 x(12)#12 >= -10
 c19:  v#0 - 32 x(13)#13 >= -12
 c20:  v#0 - 32 x(14)#14 >= -14
 c21:  v#0 - 32 x(15)#15 >= -15
 c22:  v#0 - 32 x(16)#16 >= -16
 c23:  v#0 - 32 x(17)#17 >= -18
 c24:  v#0 - 32 x(18)#18 >= -19
 c25:  v#0 - 32 x(19)#19 >= -19
 c26:  v#0 - 32 x(20)#20 >= -18
 c27:  v#0 - 32 x(21)#21 >= -17
 c28:  v#0 - 32 x(22)#22 >= -16
 c29:  v#0 - 32 x(23)#23 >= -15
 c30:  v#0 - 32 x(24)#24 >= -13
 c31:  v#0 - 32 x(25)#25 >= -11
 c32:  v#0 - 32 x(26)#26 >= -10
 c33:  v#0 - 32 x(27)#27 >= -9
 c34:  v#0 - 32 x(28)#28 >= -10
 c35:  v#0 - 32 x(29)#29 >= -8
 c36:  v#0 - 32 x(30)#30 >= -6
 c37:  v#0 - 32 x(31)#31 >= -5
 c38:  v#0 - 32 x(32)#32 >= -4
 c39:  v#0 - 32 x(33)#33 >= -2
 c40:  v#0 - 32 x(34)#34 >= 0
 c41:  v#0 - 32 x(35)#35 >= 0
 c42:  v#0 - 32 x(36)#36 >= -2
 c43:  v#0 - 32 x(37)#37 >= -3
 c44:  v#0 - 32 x(38)#38 >= -4
 c45:  v#0 - 32 x(39)#39 >= -6
 c46:  v#0 - 32 x(40)#40 >= -7
 c47:  v#0 - 32 x(41)#41 >= -7
 c48:  v#0 - 32 x(42)#42 >= -8
 c49:  v#0 - 32 x(43)#43 >= -10
 c50:  v#0 - 32 x(44)#44 >= -10
 c51:  v#0 - 32 x(45)#45 >= -13
 c52:  v#0 - 32 x(46)#46 >= -12
 c53:  v#0 - 32 x(47)#47 >= -14
 c54:  v#0 - 32 x(48)#48 >= -15
 c55:  v#0 - 32 x(49)#49 >= -16
 c56:  v#0 - 32 x(50)#50 >= -16
 c57:  v#0 - 32 x(51)#51 >= -18
 c58:  v#0 - 32 x(52)#52 >= -19
 c59:  v#0 - 32 x(1)#1 <= 12
 c60:  v#0 - 32 x(2)#2 <= 15
 c61:  v#0 - 32 x(3)#3 <= 16
 c62:  v#0 - 32 x(4)#4 <= 17
 c63:  v#0 - 32 x(5)#5 <= 17
 c64:  v#0 - 32 x(6)#6 <= 18
 c66:  v#0 - 32 x(7)#7 <= 20
 c68:  v#0 - 32 x(8)#8 <= 20
 c70:  v#0 - 32 x(9)#9 <= 21
 c72:  v#0 - 32 x(10)#10 <= 22
 c74:  v#0 - 32 x(11)#11 <= 24
 c76:  v#0 - 32 x(12)#12 <= 22
 c78:  v#0 - 32 x(13)#13 <= 20
 c80:  v#0 - 32 x(14)#14 <= 18
 c82:  v#0 - 32 x(15)#15 <= 17
 c84:  v#0 - 32 x(16)#16 <= 16
 c86:  v#0 - 32 x(17)#17 <= 14
 c88:  v#0 - 32 x(18)#18 <= 13
 c90:  v#0 - 32 x(19)#19 <= 13
 c92:  v#0 - 32 x(20)#20 <= 14
 c94:  v#0 - 32 x(21)#21 <= 15
 c96:  v#0 - 32 x(22)#22 <= 16
 c98:  v#0 - 32 x(23)#23 <= 17
 c100: v#0 - 32 x(24)#24 <= 19
 c102: v#0 - 32 x(25)#25 <= 21
 c104: v#0 - 32 x(26)#26 <= 22
 c106: v#0 - 32 x(27)#27 <= 23
 c108: v#0 - 32 x(28)#28 <= 22
 c110: v#0 - 32 x(29)#29 <= 24
 c112: v#0 - 32 x(30)#30 <= 26
 c114: v#0 - 32 x(31)#31 <= 27
 c116: v#0 - 32 x(32)#32 <= 28
 c118: v#0 - 32 x(33)#33 <= 30
 c120: v#0 - 32 x(34)#34 <= 32
 c122: v#0 - 32 x(35)#35 <= 32
 c124: v#0 - 32 x(36)#36 <= 30
 c126: v#0 - 32 x(37)#37 <= 29
 c128: v#0 - 32 x(38)#38 <= 28
 c130: v#0 - 32 x(39)#39 <= 26
 c132: v#0 - 32 x(40)#40 <= 25
 c134: v#0 - 32 x(41)#41 <= 25
 c136: v#0 - 32 x(42)#42 <= 24
 c138: v#0 - 32 x(43)#43 <= 22
 c140: v#0 - 32 x(44)#44 <= 22
 c142: v#0 - 32 x(45)#45 <= 19
 c144: v#0 - 32 x(46)#46 <= 20
 c146: v#0 - 32 x(47)#47 <= 18
 c148: v#0 - 32 x(48)#48 <= 17
 c150: v#0 - 32 x(49)#49 <= 16
 c152: v#0 - 32 x(50)#50 <= 16
 c154: v#0 - 32 x(51)#51 <= 14
 c156: v#0 - 32 x(52)#52 <= 13
 c158: - v#0 + y(1)#53 <= 0
 c160: - v#0 + y(2)#54 <= 0
 c162: - v#0 + y(3)#55 <= 0
 c164: - v#0 + y(4)#56 <= 0
 c166: - v#0 + y(5)#57 <= 0
 c168: - v#0 + y(6)#58 <= 0
 c170: - v#0 + y(7)#59 <= 0
 c172: - v#0 + y(8)#60 <= 0
 c174: - v#0 + y(9)#61 <= 0
 c176: - v#0 + y(10)#62 <= 0
 c178: - v#0 + y(11)#63 <= 0
 c180: - v#0 + y(12)#64 <= 0
 c182: - v#0 + y(13)#65 <= 0
 c184: - v#0 + y(14)#66 <= 0
 c186: - v#0 + y(15)#67 <= 0
 c188: - v#0 + y(16)#68 <= 0
 c190: - v#0 + y(17)#69 <= 0
 c192: - v#0 + y(18)#70 <= 0
 c194: - v#0 + y(19)#71 <= 0
 c196: - v#0 + y(20)#72 <= 0
 c198: - v#0 + y(21)#73 <= 0
 c200: - v#0 + y(22)#74 <= 0
 c202: - v#0 + y(23)#75 <= 0
 c204: - v#0 + y(24)#76 <= 0
 c206: - v#0 + y(25)#77 <= 0
 c208: - v#0 + y(26)#78 <= 0
 c210: - v#0 + y(27)#79 <= 0
 c212: - v#0 + y(28)#80 <= 0
 c214: - v#0 + y(29)#81 <= 0
 c216: - v#0 + y(30)#82 <= 0
 c218: - v#0 + y(31)#83 <= 0
 c220: - v#0 + y(32)#84 <= 0
 c222: - v#0 + y(33)#85 <= 0
 c224: - v#0 + y(34)#86 <= 0
 c226: - v#0 + y(35)#87 <= 0
 c228: - v#0 + y(36)#88 <= 0
 c230: - v#0 + y(37)#89 <= 0
 c232: - v#0 + y(38)#90 <= 0
 c234: - v#0 + y(39)#91 <= 0
 c236: - v#0 + y(40)#92 <= 0
 c238: - v#0 + y(41)#93 <= 0
 c240: - v#0 + y(42)#94 <= 0
 c242: - v#0 + y(43)#95 <= 0
 c244: - v#0 + y(44)#96 <= 0
 c246: - v#0 + y(45)#97 <= 0
 c248: - v#0 + y(46)#98 <= 0
 c250: - v#0 + y(47)#99 <= 0
 c252: - v#0 + y(48)#100 <= 0
 c254: - v#0 + y(49)#101 <= 0
 c256: - v#0 + y(50)#102 <= 0
 c258: - v#0 + y(51)#103 <= 0
 c260: - v#0 + y(52)#104 <= 0
 c262: - 32 x(1)#1 + y(1)#53 <= 0
 c264: - 32 x(2)#2 + y(2)#54 <= 0
 c266: - 32 x(3)#3 + y(3)#55 <= 0
 c268: - 32 x(4)#4 + y(4)#56 <= 0
 c270: - 32 x(5)#5 + y(5)#57 <= 0
 c272: - 32 x(6)#6 + y(6)#58 <= 0
 c274: - 32 x(7)#7 + y(7)#59 <= 0
 c276: - 32 x(8)#8 + y(8)#60 <= 0
 c278: - 32 x(9)#9 + y(9)#61 <= 0
 c280: - 32 x(10)#10 + y(10)#62 <= 0
 c282: - 32 x(11)#11 + y(11)#63 <= 0
 c284: - 32 x(12)#12 + y(12)#64 <= 0
 c286: - 32 x(13)#13 + y(13)#65 <= 0
 c288: - 32 x(14)#14 + y(14)#66 <= 0
 c290: - 32 x(15)#15 + y(15)#67 <= 0
 c292: - 32 x(16)#16 + y(16)#68 <= 0
 c294: - 32 x(17)#17 + y(17)#69 <= 0
 c296: - 32 x(18)#18 + y(18)#70 <= 0
 c298: - 32 x(19)#19 + y(19)#71 <= 0
 c300: - 32 x(20)#20 + y(20)#72 <= 0
 c302: - 32 x(21)#21 + y(21)#73 <= 0
 c304: - 32 x(22)#22 + y(22)#74 <= 0
 c306: - 32 x(23)#23 + y(23)#75 <= 0
 c308: - 32 x(24)#24 + y(24)#76 <= 0
 c310: - 32 x(25)#25 + y(25)#77 <= 0
 c312: - 32 x(26)#26 + y(26)#78 <= 0
 c314: - 32 x(27)#27 + y(27)#79 <= 0
 c316: - 32 x(28)#28 + y(28)#80 <= 0
 c318: - 32 x(29)#29 + y(29)#81 <= 0
 c320: - 32 x(30)#30 + y(30)#82 <= 0
 c322: - 32 x(31)#31 + y(31)#83 <= 0
 c324: - 32 x(32)#32 + y(32)#84 <= 0
 c326: - 32 x(33)#33 + y(33)#85 <= 0
 c328: - 32 x(34)#34 + y(34)#86 <= 0
 c330: - 32 x(35)#35 + y(35)#87 <= 0
 c332: - 32 x(36)#36 + y(36)#88 <= 0
 c334: - 32 x(37)#37 + y(37)#89 <= 0
 c336: - 32 x(38)#38 + y(38)#90 <= 0
 c338: - 32 x(39)#39 + y(39)#91 <= 0
 c340: - 32 x(40)#40 + y(40)#92 <= 0
 c342: - 32 x(41)#41 + y(41)#93 <= 0
 c344: - 32 x(42)#42 + y(42)#94 <= 0
 c346: - 32 x(43)#43 + y(43)#95 <= 0
 c348: - 32 x(44)#44 + y(44)#96 <= 0
 c350: - 32 x(45)#45 + y(45)#97 <= 0
 c352: - 32 x(46)#46 + y(46)#98 <= 0
 c354: - 32 x(47)#47 + y(47)#99 <= 0
 c356: - 32 x(48)#48 + y(48)#100 <= 0
 c358: - 32 x(49)#49 + y(49)#101 <= 0
 c360: - 32 x(50)#50 + y(50)#102 <= 0
 c362: - 32 x(51)#51 + y(51)#103 <= 0
 c364: - 32 x(52)#52 + y(52)#104 <= 0
 c366: - v#0 - 32 x(1)#1 + y(1)#53 >= -32
 c368: - v#0 - 32 x(2)#2 + y(2)#54 >= -32
 c370: - v#0 - 32 x(3)#3 + y(3)#55 >= -32
 c372: - v#0 - 32 x(4)#4 + y(4)#56 >= -32
 c374: - v#0 - 32 x(5)#5 + y(5)#57 >= -32
 c376: - v#0 - 32 x(6)#6 + y(6)#58 >= -32
 c378: - v#0 - 32 x(7)#7 + y(7)#59 >= -32
 c380: - v#0 - 32 x(8)#8 + y(8)#60 >= -32
 c382: - v#0 - 32 x(9)#9 + y(9)#61 >= -32
 c384: - v#0 - 32 x(10)#10 + y(10)#62 >= -32
 c386: - v#0 - 32 x(11)#11 + y(11)#63 >= -32
 c388: - v#0 - 32 x(12)#12 + y(12)#64 >= -32
 c390: - v#0 - 32 x(13)#13 + y(13)#65 >= -32
 c392: - v#0 - 32 x(14)#14 + y(14)#66 >= -32
 c394: - v#0 - 32 x(15)#15 + y(15)#67 >= -32
 c396: - v#0 - 32 x(16)#16 + y(16)#68 >= -32
 c398: - v#0 - 32 x(17)#17 + y(17)#69 >= -32
 c400: - v#0 - 32 x(18)#18 + y(18)#70 >= -32
 c402: - v#0 - 32 x(19)#19 + y(19)#71 >= -32
 c404: - v#0 - 32 x(20)#20 + y(20)#72 >= -32
 c406: - v#0 - 32 x(21)#21 + y(21)#73 >= -32
 c408: - v#0 - 32 x(22)#22 + y(22)#74 >= -32
 c410: - v#0 - 32 x(23)#23 + y(23)#75 >= -32
 c412: - v#0 - 32 x(24)#24 + y(24)#76 >= -32
 c414: - v#0 - 32 x(25)#25 + y(25)#77 >= -32
 c416: - v#0 - 32 x(26)#26 + y(26)#78 >= -32
 c418: - v#0 - 32 x(27)#27 + y(27)#79 >= -32
 c420: - v#0 - 32 x(28)#28 + y(28)#80 >= -32
 c422: - v#0 - 32 x(29)#29 + y(29)#81 >= -32
 c424: - v#0 - 32 x(30)#30 + y(30)#82 >= -32
 c426: - v#0 - 32 x(31)#31 + y(31)#83 >= -32
 c428: - v#0 - 32 x(32)#32 + y(32)#84 >= -32
 c430: - v#0 - 32 x(33)#33 + y(33)#85 >= -32
 c432: - v#0 - 32 x(34)#34 + y(34)#86 >= -32
 c434: - v#0 - 32 x(35)#35 + y(35)#87 >= -32
 c436: - v#0 - 32 x(36)#36 + y(36)#88 >= -32
 c438: - v#0 - 32 x(37)#37 + y(37)#89 >= -32
 c440: - v#0 - 32 x(38)#38 + y(38)#90 >= -32
 c442: - v#0 - 32 x(39)#39 + y(39)#91 >= -32
 c444: - v#0 - 32 x(40)#40 + y(40)#92 >= -32
 c446: - v#0 - 32 x(41)#41 + y(41)#93 >= -32
 c448: - v#0 - 32 x(42)#42 + y(42)#94 >= -32
 c450: - v#0 - 32 x(43)#43 + y(43)#95 >= -32
 c452: - v#0 - 32 x(44)#44 + y(44)#96 >= -32
 c454: - v#0 - 32 x(45)#45 + y(45)#97 >= -32
 c456: - v#0 - 32 x(46)#46 + y(46)#98 >= -32
 c458: - v#0 - 32 x(47)#47 + y(47)#99 >= -32
 c460: - v#0 - 32 x(48)#48 + y(48)#100 >= -32
 c462: - v#0 - 32 x(49)#49 + y(49)#101 >= -32
 c464: - v#0 - 32 x(50)#50 + y(50)#102 >= -32
 c466: - v#0 - 32 x(51)#51 + y(51)#103 >= -32
 c468: - v#0 - 32 x(52)#52 + y(52)#104 >= -32
Bounds
 0 <= v#0 <= 32
 0 <= x(1)#1 <= 1
 0 <= x(2)#2 <= 1
 0 <= x(3)#3 <= 1
 0 <= x(4)#4 <= 1
 0 <= x(5)#5 <= 1
 0 <= x(6)#6 <= 1
 0 <= x(7)#7 <= 1
 0 <= x(8)#8 <= 1
 0 <= x(9)#9 <= 1
 0 <= x(10)#10 <= 1
 0 <= x(11)#11 <= 1
 0 <= x(12)#12 <= 1
 0 <= x(13)#13 <= 1
 0 <= x(14)#14 <= 1
 0 <= x(15)#15 <= 1
 0 <= x(16)#16 <= 1
 0 <= x(17)#17 <= 1
 0 <= x(18)#18 <= 1
 0 <= x(19)#19 <= 1
 0 <= x(20)#20 <= 1
 0 <= x(21)#21 <= 1
 0 <= x(22)#22 <= 1
 0 <= x(23)#23 <= 1
 0 <= x(24)#24 <= 1
 0 <= x(25)#25 <= 1
 0 <= x(26)#26 <= 1
 0 <= x(27)#27 <= 1
 0 <= x(28)#28 <= 1
 0 <= x(29)#29 <= 1
 0 <= x(30)#30 <= 1
 0 <= x(31)#31 <= 1
 0 <= x(32)#32 <= 1
 0 <= x(33)#33 <= 1
 0 <= x(34)#34 <= 1
 0 <= x(35)#35 <= 1
 0 <= x(36)#36 <= 1
 0 <= x(37)#37 <= 1
 0 <= x(38)#38 <= 1
 0 <= x(39)#39 <= 1
 0 <= x(40)#40 <= 1
 0 <= x(41)#41 <= 1
 0 <= x(42)#42 <= 1
 0 <= x(43)#43 <= 1
 0 <= x(44)#44 <= 1
 0 <= x(45)#45 <= 1
 0 <= x(46)#46 <= 1
 0 <= x(47)#47 <= 1
 0 <= x(48)#48 <= 1
 0 <= x(49)#49 <= 1
 0 <= x(50)#50 <= 1
 0 <= x(51)#51 <= 1
 0 <= x(52)#52 <= 1
 0 <= y(1)#53 <= 32
 0 <= y(2)#54 <= 32
 0 <= y(3)#55 <= 32
 0 <= y(4)#56 <= 32
 0 <= y(5)#57 <= 32
 0 <= y(6)#58 <= 32
 0 <= y(7)#59 <= 32
 0 <= y(8)#60 <= 32
 0 <= y(9)#61 <= 32
 0 <= y(10)#62 <= 32
 0 <= y(11)#63 <= 32
 0 <= y(12)#64 <= 32
 0 <= y(13)#65 <= 32
 0 <= y(14)#66 <= 32
 0 <= y(15)#67 <= 32
 0 <= y(16)#68 <= 32
 0 <= y(17)#69 <= 32
 0 <= y(18)#70 <= 32
 0 <= y(19)#71 <= 32
 0 <= y(20)#72 <= 32
 0 <= y(21)#73 <= 32
 0 <= y(22)#74 <= 32
 0 <= y(23)#75 <= 32
 0 <= y(24)#76 <= 32
 0 <= y(25)#77 <= 32
 0 <= y(26)#78 <= 32
 0 <= y(27)#79 <= 32
 0 <= y(28)#80 <= 32
 0 <= y(29)#81 <= 32
 0 <= y(30)#82 <= 32
 0 <= y(31)#83 <= 32
 0 <= y(32)#84 <= 32
 0 <= y(33)#85 <= 32
 0 <= y(34)#86 <= 32
 0 <= y(35)#87 <= 32
 0 <= y(36)#88 <= 32
 0 <= y(37)#89 <= 32
 0 <= y(38)#90 <= 32
 0 <= y(39)#91 <= 32
 0 <= y(40)#92 <= 32
 0 <= y(41)#93 <= 32
 0 <= y(42)#94 <= 32
 0 <= y(43)#95 <= 32
 0 <= y(44)#96 <= 32
 0 <= y(45)#97 <= 32
 0 <= y(46)#98 <= 32
 0 <= y(47)#99 <= 32
 0 <= y(48)#100 <= 32
 0 <= y(49)#101 <= 32
 0 <= y(50)#102 <= 32
 0 <= y(51)#103 <= 32
 0 <= y(52)#104 <= 32
      dummy#105 = 1
Generals
 v#0  x(1)#1  x(2)#2  x(3)#3  x(4)#4  x(5)#5  x(6)#6  x(7)#7  x(8)#8  x(9)#9 
 x(10)#10  x(11)#11  x(12)#12  x(13)#13  x(14)#14  x(15)#15  x(16)#16 
 x(17)#17  x(18)#18  x(19)#19  x(20)#20  x(21)#21  x(22)#22  x(23)#23 
 x(24)#24  x(25)#25  x(26)#26  x(27)#27  x(28)#28  x(29)#29  x(30)#30 
 x(31)#31  x(32)#32  x(33)#33  x(34)#34  x(35)#35  x(36)#36  x(37)#37 
 x(38)#38  x(39)#39  x(40)#40  x(41)#41  x(42)#42  x(43)#43  x(44)#44 
 x(45)#45  x(46)#46  x(47)#47  x(48)#48  x(49)#49  x(50)#50  x(51)#51 
 x(52)#52  y(1)#53  y(2)#54  y(3)#55  y(4)#56  y(5)#57  y(6)#58  y(7)#59 
 y(8)#60  y(9)#61  y(10)#62  y(11)#63  y(12)#64  y(13)#65  y(14)#66  y(15)#67 
 y(16)#68  y(17)#69  y(18)#70  y(19)#71  y(20)#72  y(21)#73  y(22)#74 
 y(23)#75  y(24)#76  y(25)#77  y(26)#78  y(27)#79  y(28)#80  y(29)#81 
 y(30)#82  y(31)#83  y(32)#84  y(33)#85  y(34)#86  y(35)#87  y(36)#88 
 y(37)#89  y(38)#90  y(39)#91  y(40)#92  y(41)#93  y(42)#94  y(43)#95 
 y(44)#96  y(45)#97  y(46)#98  y(47)#99  y(48)#100  y(49)#101  y(50)#102 
 y(51)#103  y(52)#104  dummy#105 
End
